(declare-fun bvlambda_23_ ()Bool         )
(declare-fun a106 () (Array (_ BitVec 1) (_ BitVec 7)))
(assert
(let (($e22 (_ bv0  7)))
(let (($e162 (store a106 true        $e22 )))
(
                 extract(select $e162(not bvlambda_23_))
                                                                                                                                                                                                                                                                                                                                                                                                                                                                                                                                                                                                                                                                                                                                                                                                                                                                                                                                                                                                                                                                                                                                                                                                                                                                                                                                                                                                                                                                                                                                                                                                                                                                                                                                                                                                                                                                                                                                                                                                                                                                                                                                                                                                                                                                                                                                                                                                                                                                                                                                                                                                                                                                                                                                                                                                                                                                                                                                                                                                                                                             ) )                                                                                                    )                     )
